424 5
10 10 10 10 10 

0 0 0 0 0 0 5 2 14 26 38 50 
0 0 0 0 0 0 1 3 
8 1 0 0 0 0 3 10 7 4 
10 2 0 0 0 0 1 5 
7 6 0 0 0 0 2 8 6 
4 2 0 0 0 0 1 9 
8 2 0 0 0 0 1 8 
8 3 0 0 0 0 1 11 
10 1 0 0 0 0 2 11 403 
9 2 0 0 0 0 1 11 
3 3 0 0 0 0 1 12 
4 3 0 0 0 0 1 13 
0 0 0 0 0 0 1 62 
0 0 0 0 0 0 4 15 18 20 113 
6 0 0 0 1 0 1 16 
6 0 0 0 3 0 1 17 
1 0 0 0 3 0 1 19 
6 0 0 0 2 0 1 19 
9 0 0 0 4 0 1 21 
10 0 0 0 3 0 2 24 23 
4 0 0 0 2 0 1 22 
2 0 0 0 1 0 1 23 
2 0 0 0 3 0 1 25 
4 0 0 0 3 0 1 25 
0 0 0 0 0 0 1 62 
0 0 0 0 0 0 3 27 31 36 
3 1 0 0 0 0 1 28 
5 3 0 0 0 0 1 29 
6 1 0 0 0 0 2 30 130 
8 3 0 0 0 0 1 32 
3 1 0 0 0 0 2 35 34 
4 2 0 0 0 0 1 33 
10 3 0 0 0 0 1 34 
8 5 0 0 0 0 1 37 
9 3 0 0 0 0 1 37 
1 3 0 0 0 0 1 37 
0 0 0 0 0 0 1 62 
0 0 0 0 0 0 3 39 43 48 
8 0 0 1 0 0 1 40 
9 0 0 5 0 0 2 41 234 
9 0 0 4 0 0 1 42 
1 0 0 2 0 0 1 44 
2 0 0 2 0 0 1 44 
2 0 0 3 0 0 2 47 45 
4 0 0 1 0 0 1 46 
8 0 0 1 0 0 1 49 
10 0 0 5 0 0 1 49 
7 0 0 1 0 0 1 49 
0 0 0 0 0 0 1 62 
0 0 0 0 0 0 2 51 54 
4 0 0 1 0 0 2 55 52 
9 0 0 4 0 0 1 53 
1 0 0 1 0 0 2 59 56 
4 0 0 3 0 0 2 59 56 
6 0 0 2 0 0 1 56 
8 0 0 2 0 0 1 57 
6 0 0 5 0 0 1 58 
1 0 0 2 0 0 1 60 
6 0 0 3 0 0 2 60 302 
2 0 0 2 0 0 1 61 
0 0 0 0 0 0 1 62 
0 0 0 0 0 0 5 63 75 87 99 111 
0 0 0 0 0 0 1 64 
8 0 1 0 0 0 1 65 
1 0 1 0 0 0 2 68 66 
2 0 3 0 0 0 2 69 67 
10 0 5 0 0 0 1 70 
9 0 2 0 0 0 2 69 284 
2 0 4 0 0 0 2 73 71 
9 0 4 0 0 0 2 73 71 
8 0 2 0 0 0 1 72 
3 0 1 0 0 0 1 74 
7 0 2 0 0 0 1 74 
0 0 0 0 0 0 1 123 
0 0 0 0 0 0 1 76 
9 0 0 0 0 1 1 77 
8 0 0 0 0 1 2 81 78 
2 0 0 0 0 1 1 79 
3 0 0 0 0 3 1 80 
8 0 0 0 0 4 2 83 82 
6 0 0 0 0 4 2 84 82 
7 0 0 0 0 2 1 85 
4 0 0 0 0 4 2 84 408 
1 0 0 0 0 3 1 86 
9 0 0 0 0 2 1 86 
0 0 0 0 0 0 1 123 
0 0 0 0 0 0 2 88 91 
7 1 0 0 0 0 1 89 
6 5 0 0 0 0 2 97 90 
1 4 0 0 0 0 2 96 92 
5 3 0 0 0 0 2 96 92 
1 2 0 0 0 0 1 93 
4 2 0 0 0 0 1 94 
6 2 0 0 0 0 1 95 
2 2 0 0 0 0 2 98 373 
8 1 0 0 0 0 1 98 
4 3 0 0 0 0 1 98 
0 0 0 0 0 0 1 123 
0 0 0 0 0 0 2 100 101 
2 1 0 0 0 0 2 107 102 
10 3 0 0 0 0 2 107 102 
10 3 0 0 0 0 1 103 
8 1 0 0 0 0 2 109 104 
2 1 0 0 0 0 1 105 
7 6 0 0 0 0 1 106 
2 2 0 0 0 0 1 108 
9 2 0 0 0 0 1 109 
10 2 0 0 0 0 2 110 385 
8 4 0 0 0 0 1 110 
0 0 0 0 0 0 1 123 
0 0 0 0 0 0 2 112 116 
2 0 1 0 0 0 1 113 
4 0 2 0 0 0 2 119 114 
7 0 4 0 0 0 1 115 
5 0 2 0 0 0 1 117 
7 0 1 0 0 0 1 117 
2 0 4 0 0 0 2 121 118 
1 0 3 0 0 0 1 120 
3 0 4 0 0 0 2 120 127 
5 0 3 0 0 0 1 122 
1 0 1 0 0 0 1 122 
0 0 0 0 0 0 1 123 
0 0 0 0 0 0 5 124 136 168 200 232 
0 0 0 0 0 0 3 125 129 132 
5 1 0 0 0 0 3 134 126 207 
7 1 0 0 0 0 1 127 
4 2 0 0 0 0 1 128 
8 1 0 0 0 0 1 130 
3 3 0 0 0 0 1 130 
5 5 0 0 0 0 1 131 
5 5 0 0 0 0 1 133 
4 1 0 0 0 0 1 134 
7 2 0 0 0 0 1 135 
5 4 0 0 0 0 1 135 
0 0 0 0 0 0 5 264 286 308 320 342 
0 0 0 0 0 0 1 137 
7 0 1 1 0 1 1 138 
1 0 2 2 0 2 2 140 139 
2 0 3 3 0 1 2 142 141 
7 0 4 4 0 4 1 141 
10 0 1 1 0 2 1 143 
4 0 2 2 0 5 1 143 
6 0 1 1 0 2 2 146 144 
9 0 3 2 0 2 1 145 
9 0 2 3 0 1 1 147 
8 0 2 1 0 1 1 147 
8 0 2 3 0 3 3 152 149 148 
9 0 3 2 0 1 1 150 
2 0 2 3 0 1 1 150 
7 0 2 2 0 3 2 153 151 
3 0 5 1 0 5 1 154 
8 0 2 6 0 2 1 153 
9 0 1 5 0 3 3 157 155 410 
3 0 3 2 0 1 2 157 155 
4 0 4 1 0 3 1 156 
7 0 3 3 0 3 2 159 158 
9 0 1 3 0 4 1 158 
7 0 5 5 0 4 1 160 
10 0 5 4 0 2 1 160 
5 0 2 2 0 3 1 161 
8 0 1 2 0 3 1 162 
4 0 2 1 0 4 1 163 
10 0 3 2 0 3 1 164 
1 0 3 3 0 2 1 165 
9 0 3 3 0 2 1 166 
9 0 2 2 0 2 1 167 
0 0 0 0 0 0 1 424 
0 0 0 0 0 0 2 169 193 
3 1 0 1 0 1 1 170 
7 2 0 7 0 2 1 171 
7 3 0 1 0 2 1 172 
7 3 0 2 0 3 1 173 
1 2 0 1 0 2 2 185 174 
2 3 0 4 0 3 1 175 
6 3 0 2 0 4 1 176 
2 4 0 2 0 5 3 184 179 177 
7 2 0 3 0 1 2 181 178 
7 2 0 3 0 3 3 187 183 180 
4 3 0 2 0 3 2 187 186 
9 1 0 3 0 3 1 182 
7 1 0 3 0 1 1 182 
1 2 0 4 0 3 1 186 
7 3 0 3 0 1 1 186 
8 1 0 1 0 1 1 187 
3 1 0 1 0 2 1 186 
3 4 0 2 0 2 1 188 
8 2 0 1 0 2 1 188 
10 2 0 4 0 4 1 189 
1 2 0 2 0 2 2 198 190 
8 1 0 1 0 2 1 191 
9 3 0 2 0 5 1 192 
1 4 0 2 0 2 1 194 
6 3 0 1 0 3 1 194 
9 3 0 4 0 2 2 195 420 
10 4 0 4 0 4 1 196 
5 2 0 1 0 2 1 197 
3 5 0 2 0 4 1 199 
1 3 0 6 0 1 1 199 
0 0 0 0 0 0 1 424 
0 0 0 0 0 0 4 201 228 229 230 
2 1 0 1 0 1 1 202 
2 2 0 4 0 6 2 227 203 
9 1 0 1 0 4 1 204 
4 4 0 2 0 2 1 205 
4 3 0 2 0 1 4 226 225 224 206 
5 5 0 3 0 3 1 207 
3 5 0 2 0 2 1 208 
6 2 0 1 0 1 1 209 
7 2 0 3 0 3 2 210 330 
7 4 0 2 0 1 1 211 
5 2 0 2 0 3 1 212 
9 3 0 4 0 2 2 223 213 
7 1 0 2 0 4 1 214 
10 3 0 1 0 3 1 215 
3 3 0 4 0 1 1 216 
10 1 0 1 0 2 1 217 
9 3 0 2 0 5 1 218 
6 4 0 4 0 2 1 219 
2 3 0 2 0 2 1 220 
2 4 0 4 0 1 1 221 
1 2 0 5 0 3 1 222 
1 3 0 4 0 2 1 231 
8 1 0 4 0 2 1 231 
9 2 0 4 0 2 1 231 
7 3 0 1 0 3 1 231 
3 2 0 3 0 5 1 231 
5 2 0 2 0 1 1 231 
4 1 0 1 0 3 1 231 
4 2 0 3 0 3 1 231 
1 1 0 1 0 2 1 231 
0 0 0 0 0 0 1 424 
0 0 0 0 0 0 2 233 238 
8 0 1 0 1 1 1 234 
7 0 2 0 1 1 1 235 
2 0 3 0 4 1 2 237 236 
8 0 2 0 2 3 2 239 394 
3 0 2 0 3 4 1 239 
5 0 1 0 1 3 1 239 
4 0 2 0 3 3 2 243 240 
4 0 2 0 4 2 2 246 241 
10 0 3 0 3 4 1 242 
8 0 2 0 3 3 2 253 244 
10 0 2 0 2 1 2 246 244 
6 0 1 0 3 2 1 245 
8 0 2 0 1 3 2 252 247 
6 0 4 0 1 2 2 252 247 
7 0 6 0 2 4 1 248 
6 0 1 0 3 1 3 262 257 249 
8 0 2 0 1 1 1 250 
6 0 4 0 3 3 1 251 
8 0 2 0 1 4 1 254 
3 0 3 0 4 2 1 254 
7 0 3 0 2 6 2 262 257 
9 0 4 0 2 2 1 255 
2 0 1 0 4 2 1 256 
7 0 6 0 4 2 1 258 
1 0 3 0 3 2 1 258 
8 0 2 0 2 3 1 259 
9 0 4 0 1 3 1 260 
7 0 2 0 5 2 1 261 
8 0 2 0 3 4 1 263 
2 0 1 0 3 1 1 263 
0 0 0 0 0 0 1 424 
0 0 0 0 0 0 3 265 273 277 
2 0 1 1 0 0 1 266 
4 0 3 6 0 0 1 267 
6 0 3 2 0 0 1 268 
10 0 2 3 0 0 2 281 269 
5 0 2 6 0 0 1 270 
4 0 2 2 0 0 1 271 
8 0 5 5 0 0 1 272 
9 0 3 2 0 0 2 283 274 
1 0 3 4 0 0 2 284 276 
3 0 1 2 0 0 2 275 312 
6 0 5 3 0 0 1 276 
8 0 2 1 0 0 1 278 
6 0 1 1 0 0 1 278 
6 0 2 2 0 0 1 279 
2 0 3 3 0 0 1 280 
8 0 3 1 0 0 1 282 
8 0 2 1 0 0 1 282 
5 0 3 2 0 0 1 285 
8 0 3 2 0 0 1 285 
10 0 1 1 0 0 1 285 
0 0 0 0 0 0 1 424 
0 0 0 0 0 0 2 287 289 
1 1 1 0 0 0 2 292 288 
3 3 1 0 0 0 2 290 350 
10 2 2 0 0 0 1 290 
6 2 3 0 0 0 1 291 
7 2 2 0 0 0 1 293 
6 2 2 0 0 0 1 293 
4 1 4 0 0 0 1 294 
8 2 2 0 0 0 2 296 295 
4 2 3 0 0 0 1 297 
5 4 2 0 0 0 1 297 
4 2 2 0 0 0 1 298 
4 2 3 0 0 0 2 302 299 
5 2 2 0 0 0 1 300 
5 5 3 0 0 0 2 306 301 
4 3 5 0 0 0 1 303 
3 3 2 0 0 0 1 303 
8 3 2 0 0 0 1 304 
6 2 3 0 0 0 1 305 
7 4 4 0 0 0 1 307 
8 3 2 0 0 0 1 307 
0 0 0 0 0 0 1 424 
0 0 0 0 0 0 3 309 315 318 
5 1 0 0 0 0 1 310 
5 1 0 0 0 0 1 311 
6 1 0 0 0 0 1 312 
7 3 0 0 0 0 2 317 313 
10 2 0 0 0 0 2 314 398 
5 4 0 0 0 0 1 316 
4 4 0 0 0 0 1 317 
9 2 0 0 0 0 1 319 
4 4 0 0 0 0 1 319 
4 3 0 0 0 0 1 319 
0 0 0 0 0 0 5 364 376 388 400 412 
0 0 0 0 0 0 1 321 
6 1 0 0 0 1 1 322 
5 5 0 0 0 2 2 325 323 
6 2 0 0 0 2 2 328 324 
5 2 0 0 0 3 1 326 
9 3 0 0 0 4 2 326 416 
2 3 0 0 0 2 2 331 327 
2 1 0 0 0 2 2 332 329 
6 2 0 0 0 3 2 331 330 
1 2 0 0 0 5 1 330 
2 2 0 0 0 2 2 334 333 
4 1 0 0 0 1 1 333 
5 3 0 0 0 2 1 333 
2 1 0 0 0 3 1 335 
5 2 0 0 0 3 1 335 
3 4 0 0 0 3 1 336 
4 4 0 0 0 4 1 337 
3 4 0 0 0 2 1 338 
10 2 0 0 0 2 1 339 
10 2 0 0 0 1 1 340 
3 4 0 0 0 3 1 341 
0 0 0 0 0 0 1 424 
0 0 0 0 0 0 2 343 346 
5 1 0 0 0 1 1 344 
3 3 0 0 0 3 2 351 345 
8 1 0 0 0 1 2 350 347 
9 3 0 0 0 3 2 350 347 
1 2 0 0 0 2 1 348 
4 2 0 0 0 3 2 355 349 
7 2 0 0 0 1 1 352 
5 2 0 0 0 2 1 352 
6 4 0 0 0 2 1 352 
7 2 0 0 0 2 1 353 
3 2 0 0 0 7 1 354 
2 2 0 0 0 2 1 356 
5 4 0 0 0 1 1 356 
6 2 0 0 0 2 1 357 
10 5 0 0 0 3 3 362 358 391 
2 3 0 0 0 3 1 359 
1 4 0 0 0 2 1 360 
9 3 0 0 0 3 1 361 
4 2 0 0 0 4 1 363 
10 1 0 0 0 3 1 363 
0 0 0 0 0 0 1 424 
0 0 0 0 0 0 1 365 
10 1 0 0 0 0 2 367 366 
6 4 0 0 0 0 1 368 
10 3 0 0 0 0 1 368 
10 2 0 0 0 0 1 369 
6 1 0 0 0 0 1 370 
1 5 0 0 0 0 2 372 371 
2 3 0 0 0 0 2 374 373 
7 2 0 0 0 0 2 374 373 
6 3 0 0 0 0 2 375 416 
10 1 0 0 0 0 1 375 
0 0 0 0 0 0 1 424 
0 0 0 0 0 0 2 377 380 
4 0 1 0 0 0 2 379 378 
6 0 4 0 0 0 2 381 389 
2 0 3 0 0 0 1 381 
1 0 2 0 0 0 1 381 
10 0 1 0 0 0 1 382 
2 0 3 0 0 0 1 383 
10 0 4 0 0 0 2 386 384 
7 0 2 0 0 0 1 385 
9 0 2 0 0 0 1 387 
3 0 3 0 0 0 1 387 
0 0 0 0 0 0 1 424 
0 0 0 0 0 0 2 389 398 
2 1 0 0 0 0 1 390 
3 4 0 0 0 0 2 397 391 
1 2 0 0 0 0 1 392 
10 3 0 0 0 0 2 396 393 
1 2 0 0 0 0 2 394 421 
6 2 0 0 0 0 1 395 
4 3 0 0 0 0 1 399 
1 3 0 0 0 0 1 399 
2 3 0 0 0 0 1 399 
10 2 0 0 0 0 1 399 
0 0 0 0 0 0 1 424 
0 0 0 0 0 0 1 401 
7 0 0 0 0 1 1 402 
10 0 0 0 0 3 1 403 
1 0 0 0 0 1 2 405 404 
2 0 0 0 0 4 3 407 406 420 
1 0 0 0 0 5 2 407 406 
6 0 0 0 0 3 2 410 409 
4 0 0 0 0 3 1 408 
6 0 0 0 0 1 1 409 
4 0 0 0 0 2 1 411 
6 0 0 0 0 2 1 411 
0 0 0 0 0 0 1 424 
0 0 0 0 0 0 2 413 414 
1 0 0 0 0 1 2 416 415 
6 0 0 0 0 1 1 415 
7 0 0 0 0 5 2 421 417 
1 0 0 0 0 3 2 421 417 
1 0 0 0 0 2 1 418 
2 0 0 0 0 1 1 419 
7 0 0 0 0 2 1 420 
10 0 0 0 0 2 1 422 
6 0 0 0 0 4 1 422 
9 0 0 0 0 4 1 423 
0 0 0 0 0 0 1 424 
0 0 0 0 0 0 0 
